data/ILP/instance081.lp
Minimize
obj: 100000y_1 + 8y_2 + 3y_3 + 100000y_4 + 8y_5 + 100000y_6 + 3y_7 + 8y_8 + 15y_9 + 1y_10 + 100000y_11 + 15y_12 + 100000y_13 + 1y_14 + 8y_15 + 100000y_16 + 14y_17 + 8y_18 + 100000y_19 + 14y_20 + 100000y_21 + 7y_22 + 2y_23 + 100000y_24 + 2y_25 + 1y_26 + 1y_27 + 2y_28 + 2y_29 + 100000y_30 + 7y_31 + 1y_32 + 7y_33 + 100000y_34 + 100000y_35 + 2y_36 + 7y_37 + 114y_38 + 100000y_39 + 86y_40 + 7y_41 + 100000y_42 + 126y_43 + 122y_44 + 126y_45 + 7y_46 + 100000y_47 + 7y_48 + 1y_49 + 100000y_50 + 100000y_51 + 1y_52 + 7y_53 + 100000y_54 + 1y_55 + 7y_56 + 100000y_57 + 7y_58 + 1y_59 + 100000y_60 + 7y_61 + 114y_62 + 8y_63 + 100000y_64 + 1y_65 + 8y_66 + 1y_67 + 1y_68 + 100000y_69 + 1y_70 + 4y_71 + 1y_72 + 8y_73 + 100000y_74 + 9y_75 + 100000y_76 + 5y_77 + 33y_78 + 30y_79 + 100000y_80 + 5y_81 + 9y_82 + 9y_83 + 5y_84 + 100000y_85 + 33y_86 + 3y_87 + 100000y_88 + 32y_89 + 100000y_90 + 8y_91 + 100000y_92 + 32y_93 + 8y_94 + 3y_95 + 3y_96 + 100000y_97 + 15y_98 + 8y_99 + 3y_100 + 32y_101 + 8y_102 + 100000y_103 + 15y_104 + 3y_105 + 7y_106 + 100000y_107 + 100000y_108 + 3y_109 + 1y_110 + 3y_111 + 100000y_112 + 15y_113 + 1y_114 + 7y_115 + 1y_116 + 100000y_117 + 2y_118 + 72y_119 + 7y_120 + 1y_121 + 100000y_122 + 7y_123 + 100000y_124 + 2y_125 + 79y_126 + 100000y_127 + 1y_128 + 29y_129 + 100000y_130 + 16y_131 + 1y_132 + 14y_133 + 16y_134 + 100000y_135 + 2y_136 + 2y_137 + 1y_138 + 100000y_139 + 30y_140 + 5y_141 + 9y_142 + 4y_143 + 8y_144 + 1y_145 + 4y_146 + 1y_147 + 8y_148 + 9y_149 + 3y_150 + 1y_151 + 3y_152 + 9y_153 + 3y_154 + 1y_155 + 1y_156 + 60y_157 + 4y_158 + 1y_159 + 60y_160 + 1y_161 + 14y_162 + 9y_163 + 33y_164 + 1y_165 + 3y_166 + 9y_167 + 1y_168 + 29y_169 + 9y_170 + 1y_171 + 30y_172 + 8y_173 + 5y_174 + 1y_175 + 4y_176 + 8y_177 + 1y_178 + 8y_179 + 4y_180 + 1y_181 + 60y_182 + 1y_183 + 9y_184 + 1y_185 + 69y_186 + 3y_187 + 8y_188 + 30y_189 + 5y_190 + 3y_191 + 9y_192 + 3y_193 + 69y_194 + 9y_195 + 1y_196 + 33y_197 + 8y_198 + 1y_199 + 8y_200 + 5y_201 + 3y_202 + 69y_203 + 1y_204 + 9y_205 + 126y_206 + 1y_207 + 9y_208 + 126y_209 + 1y_210 + 60y_211 + 1y_212 + 122y_213 + 8y_214 + 5y_215 + 1y_216 + 1y_217 + 60y_218 + 7y_219 + 1y_220 + 60y_221 + 4y_222 + 7y_223 + 8y_224 + 4y_225 + 60y_226 + 7y_227 + 7y_228 + 2y_229 + 1y_230 + 2y_231 + 1y_232 + 7y_233 + 1y_234 + 2y_235 + 7y_236 + 1y_237 + 4y_238 + 8y_239 + 2y_240 + 7y_241 + 4y_242 + 2y_243 + 2y_244 + 7y_245 + 8y_246 + 7y_247 + 60y_248 + 1y_249 + 3y_250 + 7y_251 + 69y_252 + 3y_253 + 7y_254 + 3y_255 + 69y_256 + 7y_257 + 2y_258 + 8y_259 + 3y_260 + 1y_261 + 69y_262 + 7y_263 + 15y_264 + 7y_265 + 1y_266 + 2y_267 + 7y_268 + 2y_269 + 1y_270 + 7y_271 + 15y_272 + 3y_273 + 1y_274 + 7y_275 + 3y_276 + 3y_277 + 15y_278 + 3y_279 + 7y_280 + 15y_281 + 1y_282 + 7y_283 + 15y_284 + 1y_285 + 1y_286 + 15y_287 + 8y_288 + 3y_289 + 3y_290 + 8y_291 + 15y_292 + 3y_293 + 3y_294 + 8y_295 + 1y_296 + 15y_297 + 14y_298 + 8y_299 + 7y_300 + 86y_301 + 8y_302 + 7y_303 + 14y_304 + 72y_305 + 8y_306 + 7y_307 + 8y_308 + 72y_309 + 7y_310 + 1y_311 + 7y_312 + 72y_313 + 7y_314 + 79y_315 + 2y_316 + 7y_317 + 1y_318 + 2y_319 + 7y_320 + 3y_321 + 79y_322 + 7y_323 + 3y_324 + 1y_325 + 79y_326 + 7y_327 + 3y_328 + 1y_329 + 15y_330 + 3y_331 + 8y_332 + 32y_333 + 3y_334 + 8y_335 + 100000y_336 + 100000y_337 + 100000y_338 + 100000y_339 + 100000y_340 + 100000y_341 + 100000y_342 + 100000y_343 + 100000y_344 + 100000y_345 + 100000y_346 + 100000y_347 + 100000y_348 + 100000y_349 + 100000y_350 + 100000y_351 + 100000y_352 + 100000y_353 + 100000y_354 + 100000y_355 + 100000y_356 + 100000y_357 + 100000y_358 + 100000y_359 + 100000y_360 + 100000y_361 + 100000y_362 + 100000y_363 + 100000y_364 + 100000y_365 + 100000y_366 + 100000y_367 + 100000y_368 + 100000y_369 + 100000y_370 + 100000y_371 + 100000y_372 + 100000y_373 + 100000y_374 + 100000y_375 + 100000y_376
Subject To
x_377 = 12
x_384 = 1
x_385 = 1
x_386 = 1
x_387 = 1
x_388 = 1
x_389 = 1
x_378 = 1
x_379 = 1
x_380 = 1
x_381 = 1
x_382 = 1
x_383 = 1
x_1 - 13y_1 <= 0
x_2 - 13y_2 <= 0
x_3 - 13y_3 <= 0
x_4 - 13y_4 <= 0
x_5 - 13y_5 <= 0
x_6 - 13y_6 <= 0
x_7 - 13y_7 <= 0
x_8 - 13y_8 <= 0
x_9 - 13y_9 <= 0
x_10 - 13y_10 <= 0
x_11 - 13y_11 <= 0
x_12 - 13y_12 <= 0
x_13 - 13y_13 <= 0
x_14 - 13y_14 <= 0
x_15 - 13y_15 <= 0
x_16 - 13y_16 <= 0
x_17 - 13y_17 <= 0
x_18 - 13y_18 <= 0
x_19 - 13y_19 <= 0
x_20 - 13y_20 <= 0
x_21 - 13y_21 <= 0
x_22 - 13y_22 <= 0
x_23 - 13y_23 <= 0
x_24 - 13y_24 <= 0
x_25 - 13y_25 <= 0
x_26 - 13y_26 <= 0
x_27 - 13y_27 <= 0
x_28 - 13y_28 <= 0
x_29 - 13y_29 <= 0
x_30 - 13y_30 <= 0
x_31 - 13y_31 <= 0
x_32 - 13y_32 <= 0
x_33 - 13y_33 <= 0
x_34 - 13y_34 <= 0
x_35 - 13y_35 <= 0
x_36 - 13y_36 <= 0
x_37 - 13y_37 <= 0
x_38 - 13y_38 <= 0
x_39 - 13y_39 <= 0
x_40 - 13y_40 <= 0
x_41 - 13y_41 <= 0
x_42 - 13y_42 <= 0
x_43 - 13y_43 <= 0
x_44 - 13y_44 <= 0
x_45 - 13y_45 <= 0
x_46 - 13y_46 <= 0
x_47 - 13y_47 <= 0
x_48 - 13y_48 <= 0
x_49 - 13y_49 <= 0
x_50 - 13y_50 <= 0
x_51 - 13y_51 <= 0
x_52 - 13y_52 <= 0
x_53 - 13y_53 <= 0
x_54 - 13y_54 <= 0
x_55 - 13y_55 <= 0
x_56 - 13y_56 <= 0
x_57 - 13y_57 <= 0
x_58 - 13y_58 <= 0
x_59 - 13y_59 <= 0
x_60 - 13y_60 <= 0
x_61 - 13y_61 <= 0
x_62 - 13y_62 <= 0
x_63 - 13y_63 <= 0
x_64 - 13y_64 <= 0
x_65 - 13y_65 <= 0
x_66 - 13y_66 <= 0
x_67 - 13y_67 <= 0
x_68 - 13y_68 <= 0
x_69 - 13y_69 <= 0
x_70 - 13y_70 <= 0
x_71 - 13y_71 <= 0
x_72 - 13y_72 <= 0
x_73 - 13y_73 <= 0
x_74 - 13y_74 <= 0
x_75 - 13y_75 <= 0
x_76 - 13y_76 <= 0
x_77 - 13y_77 <= 0
x_78 - 13y_78 <= 0
x_79 - 13y_79 <= 0
x_80 - 13y_80 <= 0
x_81 - 13y_81 <= 0
x_82 - 13y_82 <= 0
x_83 - 13y_83 <= 0
x_84 - 13y_84 <= 0
x_85 - 13y_85 <= 0
x_86 - 13y_86 <= 0
x_87 - 13y_87 <= 0
x_88 - 13y_88 <= 0
x_89 - 13y_89 <= 0
x_90 - 13y_90 <= 0
x_91 - 13y_91 <= 0
x_92 - 13y_92 <= 0
x_93 - 13y_93 <= 0
x_94 - 13y_94 <= 0
x_95 - 13y_95 <= 0
x_96 - 13y_96 <= 0
x_97 - 13y_97 <= 0
x_98 - 13y_98 <= 0
x_99 - 13y_99 <= 0
x_100 - 13y_100 <= 0
x_101 - 13y_101 <= 0
x_102 - 13y_102 <= 0
x_103 - 13y_103 <= 0
x_104 - 13y_104 <= 0
x_105 - 13y_105 <= 0
x_106 - 13y_106 <= 0
x_107 - 13y_107 <= 0
x_108 - 13y_108 <= 0
x_109 - 13y_109 <= 0
x_110 - 13y_110 <= 0
x_111 - 13y_111 <= 0
x_112 - 13y_112 <= 0
x_113 - 13y_113 <= 0
x_114 - 13y_114 <= 0
x_115 - 13y_115 <= 0
x_116 - 13y_116 <= 0
x_117 - 13y_117 <= 0
x_118 - 13y_118 <= 0
x_119 - 13y_119 <= 0
x_120 - 13y_120 <= 0
x_121 - 13y_121 <= 0
x_122 - 13y_122 <= 0
x_123 - 13y_123 <= 0
x_124 - 13y_124 <= 0
x_125 - 13y_125 <= 0
x_126 - 13y_126 <= 0
x_127 - 13y_127 <= 0
x_128 - 13y_128 <= 0
x_129 - 13y_129 <= 0
x_130 - 13y_130 <= 0
x_131 - 13y_131 <= 0
x_132 - 13y_132 <= 0
x_133 - 13y_133 <= 0
x_134 - 13y_134 <= 0
x_135 - 13y_135 <= 0
x_136 - 13y_136 <= 0
x_137 - 13y_137 <= 0
x_138 - 13y_138 <= 0
x_139 - 13y_139 <= 0
x_140 - 13y_140 <= 0
x_141 - 13y_141 <= 0
x_142 - 13y_142 <= 0
x_143 - 13y_143 <= 0
x_144 - 13y_144 <= 0
x_145 - 13y_145 <= 0
x_146 - 13y_146 <= 0
x_147 - 13y_147 <= 0
x_148 - 13y_148 <= 0
x_149 - 13y_149 <= 0
x_150 - 13y_150 <= 0
x_151 - 13y_151 <= 0
x_152 - 13y_152 <= 0
x_153 - 13y_153 <= 0
x_154 - 13y_154 <= 0
x_155 - 13y_155 <= 0
x_156 - 13y_156 <= 0
x_157 - 13y_157 <= 0
x_158 - 13y_158 <= 0
x_159 - 13y_159 <= 0
x_160 - 13y_160 <= 0
x_161 - 13y_161 <= 0
x_162 - 13y_162 <= 0
x_163 - 13y_163 <= 0
x_164 - 13y_164 <= 0
x_165 - 13y_165 <= 0
x_166 - 13y_166 <= 0
x_167 - 13y_167 <= 0
x_168 - 13y_168 <= 0
x_169 - 13y_169 <= 0
x_170 - 13y_170 <= 0
x_171 - 13y_171 <= 0
x_172 - 13y_172 <= 0
x_173 - 13y_173 <= 0
x_174 - 13y_174 <= 0
x_175 - 13y_175 <= 0
x_176 - 13y_176 <= 0
x_177 - 13y_177 <= 0
x_178 - 13y_178 <= 0
x_179 - 13y_179 <= 0
x_180 - 13y_180 <= 0
x_181 - 13y_181 <= 0
x_182 - 13y_182 <= 0
x_183 - 13y_183 <= 0
x_184 - 13y_184 <= 0
x_185 - 13y_185 <= 0
x_186 - 13y_186 <= 0
x_187 - 13y_187 <= 0
x_188 - 13y_188 <= 0
x_189 - 13y_189 <= 0
x_190 - 13y_190 <= 0
x_191 - 13y_191 <= 0
x_192 - 13y_192 <= 0
x_193 - 13y_193 <= 0
x_194 - 13y_194 <= 0
x_195 - 13y_195 <= 0
x_196 - 13y_196 <= 0
x_197 - 13y_197 <= 0
x_198 - 13y_198 <= 0
x_199 - 13y_199 <= 0
x_200 - 13y_200 <= 0
x_201 - 13y_201 <= 0
x_202 - 13y_202 <= 0
x_203 - 13y_203 <= 0
x_204 - 13y_204 <= 0
x_205 - 13y_205 <= 0
x_206 - 13y_206 <= 0
x_207 - 13y_207 <= 0
x_208 - 13y_208 <= 0
x_209 - 13y_209 <= 0
x_210 - 13y_210 <= 0
x_211 - 13y_211 <= 0
x_212 - 13y_212 <= 0
x_213 - 13y_213 <= 0
x_214 - 13y_214 <= 0
x_215 - 13y_215 <= 0
x_216 - 13y_216 <= 0
x_217 - 13y_217 <= 0
x_218 - 13y_218 <= 0
x_219 - 13y_219 <= 0
x_220 - 13y_220 <= 0
x_221 - 13y_221 <= 0
x_222 - 13y_222 <= 0
x_223 - 13y_223 <= 0
x_224 - 13y_224 <= 0
x_225 - 13y_225 <= 0
x_226 - 13y_226 <= 0
x_227 - 13y_227 <= 0
x_228 - 13y_228 <= 0
x_229 - 13y_229 <= 0
x_230 - 13y_230 <= 0
x_231 - 13y_231 <= 0
x_232 - 13y_232 <= 0
x_233 - 13y_233 <= 0
x_234 - 13y_234 <= 0
x_235 - 13y_235 <= 0
x_236 - 13y_236 <= 0
x_237 - 13y_237 <= 0
x_238 - 13y_238 <= 0
x_239 - 13y_239 <= 0
x_240 - 13y_240 <= 0
x_241 - 13y_241 <= 0
x_242 - 13y_242 <= 0
x_243 - 13y_243 <= 0
x_244 - 13y_244 <= 0
x_245 - 13y_245 <= 0
x_246 - 13y_246 <= 0
x_247 - 13y_247 <= 0
x_248 - 13y_248 <= 0
x_249 - 13y_249 <= 0
x_250 - 13y_250 <= 0
x_251 - 13y_251 <= 0
x_252 - 13y_252 <= 0
x_253 - 13y_253 <= 0
x_254 - 13y_254 <= 0
x_255 - 13y_255 <= 0
x_256 - 13y_256 <= 0
x_257 - 13y_257 <= 0
x_258 - 13y_258 <= 0
x_259 - 13y_259 <= 0
x_260 - 13y_260 <= 0
x_261 - 13y_261 <= 0
x_262 - 13y_262 <= 0
x_263 - 13y_263 <= 0
x_264 - 13y_264 <= 0
x_265 - 13y_265 <= 0
x_266 - 13y_266 <= 0
x_267 - 13y_267 <= 0
x_268 - 13y_268 <= 0
x_269 - 13y_269 <= 0
x_270 - 13y_270 <= 0
x_271 - 13y_271 <= 0
x_272 - 13y_272 <= 0
x_273 - 13y_273 <= 0
x_274 - 13y_274 <= 0
x_275 - 13y_275 <= 0
x_276 - 13y_276 <= 0
x_277 - 13y_277 <= 0
x_278 - 13y_278 <= 0
x_279 - 13y_279 <= 0
x_280 - 13y_280 <= 0
x_281 - 13y_281 <= 0
x_282 - 13y_282 <= 0
x_283 - 13y_283 <= 0
x_284 - 13y_284 <= 0
x_285 - 13y_285 <= 0
x_286 - 13y_286 <= 0
x_287 - 13y_287 <= 0
x_288 - 13y_288 <= 0
x_289 - 13y_289 <= 0
x_290 - 13y_290 <= 0
x_291 - 13y_291 <= 0
x_292 - 13y_292 <= 0
x_293 - 13y_293 <= 0
x_294 - 13y_294 <= 0
x_295 - 13y_295 <= 0
x_296 - 13y_296 <= 0
x_297 - 13y_297 <= 0
x_298 - 13y_298 <= 0
x_299 - 13y_299 <= 0
x_300 - 13y_300 <= 0
x_301 - 13y_301 <= 0
x_302 - 13y_302 <= 0
x_303 - 13y_303 <= 0
x_304 - 13y_304 <= 0
x_305 - 13y_305 <= 0
x_306 - 13y_306 <= 0
x_307 - 13y_307 <= 0
x_308 - 13y_308 <= 0
x_309 - 13y_309 <= 0
x_310 - 13y_310 <= 0
x_311 - 13y_311 <= 0
x_312 - 13y_312 <= 0
x_313 - 13y_313 <= 0
x_314 - 13y_314 <= 0
x_315 - 13y_315 <= 0
x_316 - 13y_316 <= 0
x_317 - 13y_317 <= 0
x_318 - 13y_318 <= 0
x_319 - 13y_319 <= 0
x_320 - 13y_320 <= 0
x_321 - 13y_321 <= 0
x_322 - 13y_322 <= 0
x_323 - 13y_323 <= 0
x_324 - 13y_324 <= 0
x_325 - 13y_325 <= 0
x_326 - 13y_326 <= 0
x_327 - 13y_327 <= 0
x_328 - 13y_328 <= 0
x_329 - 13y_329 <= 0
x_330 - 13y_330 <= 0
x_331 - 13y_331 <= 0
x_332 - 13y_332 <= 0
x_333 - 13y_333 <= 0
x_334 - 13y_334 <= 0
x_335 - 13y_335 <= 0
x_336 - 13y_336 <= 0
x_337 - 13y_337 <= 0
x_338 - 13y_338 <= 0
x_339 - 13y_339 <= 0
x_340 - 13y_340 <= 0
x_341 - 13y_341 <= 0
x_342 - 13y_342 <= 0
x_343 - 13y_343 <= 0
x_344 - 13y_344 <= 0
x_345 - 13y_345 <= 0
x_346 - 13y_346 <= 0
x_347 - 13y_347 <= 0
x_348 - 13y_348 <= 0
x_349 - 13y_349 <= 0
x_350 - 13y_350 <= 0
x_351 - 13y_351 <= 0
x_352 - 13y_352 <= 0
x_353 - 13y_353 <= 0
x_354 - 13y_354 <= 0
x_355 - 13y_355 <= 0
x_356 - 13y_356 <= 0
x_357 - 13y_357 <= 0
x_358 - 13y_358 <= 0
x_359 - 13y_359 <= 0
x_360 - 13y_360 <= 0
x_361 - 13y_361 <= 0
x_362 - 13y_362 <= 0
x_363 - 13y_363 <= 0
x_364 - 13y_364 <= 0
x_365 - 13y_365 <= 0
x_366 - 13y_366 <= 0
x_367 - 13y_367 <= 0
x_368 - 13y_368 <= 0
x_369 - 13y_369 <= 0
x_370 - 13y_370 <= 0
x_371 - 13y_371 <= 0
x_372 - 13y_372 <= 0
x_373 - 13y_373 <= 0
x_374 - 13y_374 <= 0
x_375 - 13y_375 <= 0
x_376 - 13y_376 <= 0
x_1 - x_337 +  x_2 - x_288 = 0
x_4 - x_338 +  x_3 - x_7 +  x_5 - x_291 = 0
x_8 - x_295 +  x_7 - x_3 +  x_6 - x_336 = 0
x_9 - x_264 +  x_10 - x_286 +  x_11 - x_340 = 0
x_13 - x_339 +  x_14 - x_296 +  x_12 - x_284 = 0
x_17 - x_298 +  x_16 - x_341 +  x_15 - x_18 = 0
x_20 - x_304 +  x_19 - x_342 +  x_18 - x_15 = 0
x_23 - x_267 +  x_21 - x_344 +  x_22 - x_245 = 0
x_25 - x_231 +  x_24 - x_343 +  x_26 - x_138 = 0
x_27 - x_249 +  x_30 - x_345 +  x_29 - x_240 +  x_31 - x_265 +  x_28 - x_243 = 0
x_32 - x_216 +  x_34 - x_348 +  x_33 - x_228 = 0
x_35 - x_347 +  x_36 - x_229 = 0
x_38 - x_62 +  x_39 - x_349 +  x_37 - x_41 = 0
x_40 - x_301 +  x_42 - x_350 +  x_41 - x_37 = 0
x_45 - x_206 +  x_43 - x_209 +  x_46 - x_48 +  x_44 - x_213 +  x_47 - x_355 = 0
x_49 - x_52 +  x_50 - x_356 +  x_48 - x_46 = 0
x_52 - x_49 +  x_51 - x_354 +  x_53 - x_56 = 0
x_54 - x_353 +  x_55 - x_59 +  x_56 - x_53 = 0
x_58 - x_61 +  x_59 - x_55 +  x_57 - x_352 = 0
x_61 - x_58 +  x_62 - x_38 +  x_60 - x_351 = 0
x_63 - x_66 +  x_64 - x_357 +  x_65 - x_145 = 0
x_69 - x_358 +  x_66 - x_63 +  x_68 - x_156 +  x_67 - x_70 = 0
x_73 - x_144 +  x_70 - x_67 +  x_74 - x_359 +  x_71 - x_176 +  x_72 - x_161 = 0
x_77 - x_141 +  x_75 - x_83 +  x_76 - x_361 +  x_78 - x_197 +  x_79 - x_189 = 0
x_80 - x_360 +  x_82 - x_142 +  x_81 - x_84 = 0
x_85 - x_362 +  x_86 - x_164 +  x_83 - x_75 +  x_84 - x_81 = 0
x_88 - x_363 +  x_87 - x_334 = 0
x_89 - x_101 +  x_90 - x_364 +  x_91 - x_335 = 0
x_95 - x_331 +  x_93 - x_333 +  x_92 - x_365 +  x_94 - x_102 = 0
x_96 - x_100 +  x_98 - x_113 +  x_97 - x_366 +  x_99 - x_332 = 0
x_103 - x_367 +  x_100 - x_96 +  x_101 - x_89 +  x_102 - x_94 = 0
x_105 - x_321 +  x_106 - x_327 +  x_104 - x_330 +  x_107 - x_370 = 0
x_110 - x_325 +  x_109 - x_111 +  x_108 - x_368 = 0
x_113 - x_98 +  x_111 - x_109 +  x_112 - x_369 +  x_114 - x_329 = 0
x_116 - x_311 +  x_115 - x_317 +  x_117 - x_371 +  x_118 - x_316 = 0
x_121 - x_318 +  x_119 - x_309 +  x_122 - x_373 +  x_120 - x_312 = 0
x_123 - x_314 +  x_124 - x_372 +  x_126 - x_326 +  x_125 - x_319 = 0
x_127 - x_375 +  x_128 - x_132 = 0
x_131 - x_134 +  x_132 - x_128 +  x_130 - x_374 +  x_129 - x_169 = 0
x_133 - x_162 +  x_135 - x_376 +  x_134 - x_131 = 0
x_137 - x_244 +  x_136 - x_235 +  x_138 - x_26 +  x_139 - x_346 = 0
x_141 - x_77 +  x_140 - x_172 +  x_142 - x_82 = 0
x_143 - x_146 +  x_144 - x_73 +  x_145 - x_65 = 0
x_148 - x_179 +  x_147 - x_151 +  x_146 - x_143 = 0
x_149 - x_184 +  x_150 - x_152 +  x_151 - x_147 = 0
x_154 - x_166 +  x_153 - x_192 +  x_152 - x_150 = 0
x_155 - x_159 +  x_157 - x_218 +  x_156 - x_68 = 0
x_161 - x_72 +  x_159 - x_155 +  x_160 - x_221 +  x_158 - x_180 = 0
x_164 - x_86 +  x_163 - x_195 +  x_162 - x_133 +  x_165 - x_171 = 0
x_166 - x_154 +  x_168 - x_175 +  x_167 - x_205 = 0
x_169 - x_129 +  x_170 - x_208 +  x_171 - x_165 = 0
x_172 - x_140 +  x_175 - x_168 +  x_174 - x_190 +  x_173 - x_198 = 0
x_178 - x_183 +  x_176 - x_71 +  x_179 - x_148 +  x_177 - x_200 = 0
x_183 - x_178 +  x_180 - x_158 +  x_181 - x_185 +  x_182 - x_226 = 0
x_186 - x_252 +  x_185 - x_181 +  x_187 - x_193 +  x_184 - x_149 = 0
x_189 - x_79 +  x_188 - x_214 +  x_190 - x_174 = 0
x_194 - x_256 +  x_191 - x_202 +  x_193 - x_187 +  x_192 - x_153 = 0
x_197 - x_78 +  x_195 - x_163 +  x_196 - x_207 = 0
x_199 - x_210 +  x_201 - x_215 +  x_200 - x_177 +  x_198 - x_173 = 0
x_204 - x_212 +  x_205 - x_167 +  x_202 - x_191 +  x_203 - x_262 = 0
x_206 - x_45 +  x_208 - x_170 +  x_207 - x_196 = 0
x_209 - x_43 +  x_212 - x_204 +  x_210 - x_199 +  x_211 - x_248 = 0
x_214 - x_188 +  x_213 - x_44 +  x_215 - x_201 = 0
x_218 - x_157 +  x_216 - x_32 +  x_217 - x_220 +  x_219 - x_233 = 0
x_220 - x_217 +  x_223 - x_236 +  x_221 - x_160 +  x_222 - x_225 = 0
x_224 - x_246 +  x_227 - x_241 +  x_225 - x_222 +  x_226 - x_182 = 0
x_228 - x_33 +  x_230 - x_234 +  x_229 - x_36 = 0
x_233 - x_219 +  x_232 - x_237 +  x_231 - x_25 +  x_234 - x_230 = 0
x_235 - x_136 +  x_237 - x_232 +  x_236 - x_223 +  x_238 - x_242 = 0
x_239 - x_259 +  x_242 - x_238 +  x_240 - x_29 +  x_241 - x_227 = 0
x_244 - x_137 +  x_243 - x_28 +  x_245 - x_22 = 0
x_248 - x_211 +  x_246 - x_224 +  x_247 - x_257 = 0
x_250 - x_255 +  x_251 - x_271 +  x_252 - x_186 +  x_249 - x_27 = 0
x_255 - x_250 +  x_254 - x_275 +  x_253 - x_260 +  x_256 - x_194 = 0
x_257 - x_247 +  x_258 - x_269 +  x_259 - x_239 = 0
x_263 - x_280 +  x_260 - x_253 +  x_261 - x_270 +  x_262 - x_203 = 0
x_266 - x_274 +  x_265 - x_31 +  x_267 - x_23 +  x_264 - x_9 = 0
x_268 - x_283 +  x_269 - x_258 +  x_270 - x_261 = 0
x_273 - x_277 +  x_271 - x_251 +  x_272 - x_287 +  x_274 - x_266 = 0
x_278 - x_292 +  x_275 - x_254 +  x_276 - x_279 +  x_277 - x_273 = 0
x_281 - x_297 +  x_280 - x_263 +  x_282 - x_285 +  x_279 - x_276 = 0
x_283 - x_268 +  x_284 - x_12 +  x_285 - x_282 = 0
x_289 - x_293 +  x_287 - x_272 +  x_288 - x_2 +  x_286 - x_10 = 0
x_291 - x_5 +  x_290 - x_294 +  x_293 - x_289 +  x_292 - x_278 = 0
x_297 - x_281 +  x_296 - x_14 +  x_294 - x_290 +  x_295 - x_8 = 0
x_300 - x_303 +  x_298 - x_17 +  x_299 - x_306 = 0
x_302 - x_308 +  x_301 - x_40 +  x_303 - x_300 = 0
x_306 - x_299 +  x_305 - x_313 +  x_307 - x_310 +  x_304 - x_20 = 0
x_308 - x_302 +  x_309 - x_119 +  x_310 - x_307 = 0
x_313 - x_305 +  x_311 - x_116 +  x_312 - x_120 = 0
x_316 - x_118 +  x_315 - x_322 +  x_314 - x_123 = 0
x_318 - x_121 +  x_319 - x_125 +  x_317 - x_115 = 0
x_320 - x_323 +  x_321 - x_105 +  x_322 - x_315 = 0
x_326 - x_126 +  x_325 - x_110 +  x_324 - x_328 +  x_323 - x_320 = 0
x_328 - x_324 +  x_329 - x_114 +  x_327 - x_106 = 0
x_331 - x_95 +  x_332 - x_99 +  x_330 - x_104 = 0
x_333 - x_93 +  x_335 - x_91 +  x_334 - x_87 = 0
x_336 - x_6 +  x_337 - x_1 +  x_339 - x_13 +  x_377 +  x_338 - x_4 +  x_340 - x_11 = 0
x_341 - x_16 - x_378 +  x_342 - x_19 = 0
x_346 - x_139 +  x_343 - x_24 +  x_344 - x_21 +  x_345 - x_30 - x_379 = 0
x_348 - x_34 +  x_347 - x_35 - x_380 = 0
x_350 - x_42 - x_381 +  x_349 - x_39 = 0
x_353 - x_54 +  x_352 - x_57 +  x_356 - x_50 +  x_351 - x_60 +  x_355 - x_47 - x_382 +  x_354 - x_51 = 0
-x_383 +  x_357 - x_64 +  x_359 - x_74 +  x_358 - x_69 = 0
-x_384 +  x_361 - x_76 +  x_360 - x_80 +  x_362 - x_85 = 0
x_363 - x_88 +  x_364 - x_90 - x_385 = 0
x_365 - x_92 +  x_367 - x_103 - x_386 +  x_366 - x_97 = 0
x_368 - x_108 +  x_369 - x_112 +  x_370 - x_107 - x_387 = 0
x_371 - x_117 - x_388 +  x_373 - x_122 +  x_372 - x_124 = 0
-x_389 +  x_376 - x_135 +  x_374 - x_130 +  x_375 - x_127 = 0
Bounds
x_1 >= 0
x_2 >= 0
x_3 >= 0
x_4 >= 0
x_5 >= 0
x_6 >= 0
x_7 >= 0
x_8 >= 0
x_9 >= 0
x_10 >= 0
x_11 >= 0
x_12 >= 0
x_13 >= 0
x_14 >= 0
x_15 >= 0
x_16 >= 0
x_17 >= 0
x_18 >= 0
x_19 >= 0
x_20 >= 0
x_21 >= 0
x_22 >= 0
x_23 >= 0
x_24 >= 0
x_25 >= 0
x_26 >= 0
x_27 >= 0
x_28 >= 0
x_29 >= 0
x_30 >= 0
x_31 >= 0
x_32 >= 0
x_33 >= 0
x_34 >= 0
x_35 >= 0
x_36 >= 0
x_37 >= 0
x_38 >= 0
x_39 >= 0
x_40 >= 0
x_41 >= 0
x_42 >= 0
x_43 >= 0
x_44 >= 0
x_45 >= 0
x_46 >= 0
x_47 >= 0
x_48 >= 0
x_49 >= 0
x_50 >= 0
x_51 >= 0
x_52 >= 0
x_53 >= 0
x_54 >= 0
x_55 >= 0
x_56 >= 0
x_57 >= 0
x_58 >= 0
x_59 >= 0
x_60 >= 0
x_61 >= 0
x_62 >= 0
x_63 >= 0
x_64 >= 0
x_65 >= 0
x_66 >= 0
x_67 >= 0
x_68 >= 0
x_69 >= 0
x_70 >= 0
x_71 >= 0
x_72 >= 0
x_73 >= 0
x_74 >= 0
x_75 >= 0
x_76 >= 0
x_77 >= 0
x_78 >= 0
x_79 >= 0
x_80 >= 0
x_81 >= 0
x_82 >= 0
x_83 >= 0
x_84 >= 0
x_85 >= 0
x_86 >= 0
x_87 >= 0
x_88 >= 0
x_89 >= 0
x_90 >= 0
x_91 >= 0
x_92 >= 0
x_93 >= 0
x_94 >= 0
x_95 >= 0
x_96 >= 0
x_97 >= 0
x_98 >= 0
x_99 >= 0
x_100 >= 0
x_101 >= 0
x_102 >= 0
x_103 >= 0
x_104 >= 0
x_105 >= 0
x_106 >= 0
x_107 >= 0
x_108 >= 0
x_109 >= 0
x_110 >= 0
x_111 >= 0
x_112 >= 0
x_113 >= 0
x_114 >= 0
x_115 >= 0
x_116 >= 0
x_117 >= 0
x_118 >= 0
x_119 >= 0
x_120 >= 0
x_121 >= 0
x_122 >= 0
x_123 >= 0
x_124 >= 0
x_125 >= 0
x_126 >= 0
x_127 >= 0
x_128 >= 0
x_129 >= 0
x_130 >= 0
x_131 >= 0
x_132 >= 0
x_133 >= 0
x_134 >= 0
x_135 >= 0
x_136 >= 0
x_137 >= 0
x_138 >= 0
x_139 >= 0
x_140 >= 0
x_141 >= 0
x_142 >= 0
x_143 >= 0
x_144 >= 0
x_145 >= 0
x_146 >= 0
x_147 >= 0
x_148 >= 0
x_149 >= 0
x_150 >= 0
x_151 >= 0
x_152 >= 0
x_153 >= 0
x_154 >= 0
x_155 >= 0
x_156 >= 0
x_157 >= 0
x_158 >= 0
x_159 >= 0
x_160 >= 0
x_161 >= 0
x_162 >= 0
x_163 >= 0
x_164 >= 0
x_165 >= 0
x_166 >= 0
x_167 >= 0
x_168 >= 0
x_169 >= 0
x_170 >= 0
x_171 >= 0
x_172 >= 0
x_173 >= 0
x_174 >= 0
x_175 >= 0
x_176 >= 0
x_177 >= 0
x_178 >= 0
x_179 >= 0
x_180 >= 0
x_181 >= 0
x_182 >= 0
x_183 >= 0
x_184 >= 0
x_185 >= 0
x_186 >= 0
x_187 >= 0
x_188 >= 0
x_189 >= 0
x_190 >= 0
x_191 >= 0
x_192 >= 0
x_193 >= 0
x_194 >= 0
x_195 >= 0
x_196 >= 0
x_197 >= 0
x_198 >= 0
x_199 >= 0
x_200 >= 0
x_201 >= 0
x_202 >= 0
x_203 >= 0
x_204 >= 0
x_205 >= 0
x_206 >= 0
x_207 >= 0
x_208 >= 0
x_209 >= 0
x_210 >= 0
x_211 >= 0
x_212 >= 0
x_213 >= 0
x_214 >= 0
x_215 >= 0
x_216 >= 0
x_217 >= 0
x_218 >= 0
x_219 >= 0
x_220 >= 0
x_221 >= 0
x_222 >= 0
x_223 >= 0
x_224 >= 0
x_225 >= 0
x_226 >= 0
x_227 >= 0
x_228 >= 0
x_229 >= 0
x_230 >= 0
x_231 >= 0
x_232 >= 0
x_233 >= 0
x_234 >= 0
x_235 >= 0
x_236 >= 0
x_237 >= 0
x_238 >= 0
x_239 >= 0
x_240 >= 0
x_241 >= 0
x_242 >= 0
x_243 >= 0
x_244 >= 0
x_245 >= 0
x_246 >= 0
x_247 >= 0
x_248 >= 0
x_249 >= 0
x_250 >= 0
x_251 >= 0
x_252 >= 0
x_253 >= 0
x_254 >= 0
x_255 >= 0
x_256 >= 0
x_257 >= 0
x_258 >= 0
x_259 >= 0
x_260 >= 0
x_261 >= 0
x_262 >= 0
x_263 >= 0
x_264 >= 0
x_265 >= 0
x_266 >= 0
x_267 >= 0
x_268 >= 0
x_269 >= 0
x_270 >= 0
x_271 >= 0
x_272 >= 0
x_273 >= 0
x_274 >= 0
x_275 >= 0
x_276 >= 0
x_277 >= 0
x_278 >= 0
x_279 >= 0
x_280 >= 0
x_281 >= 0
x_282 >= 0
x_283 >= 0
x_284 >= 0
x_285 >= 0
x_286 >= 0
x_287 >= 0
x_288 >= 0
x_289 >= 0
x_290 >= 0
x_291 >= 0
x_292 >= 0
x_293 >= 0
x_294 >= 0
x_295 >= 0
x_296 >= 0
x_297 >= 0
x_298 >= 0
x_299 >= 0
x_300 >= 0
x_301 >= 0
x_302 >= 0
x_303 >= 0
x_304 >= 0
x_305 >= 0
x_306 >= 0
x_307 >= 0
x_308 >= 0
x_309 >= 0
x_310 >= 0
x_311 >= 0
x_312 >= 0
x_313 >= 0
x_314 >= 0
x_315 >= 0
x_316 >= 0
x_317 >= 0
x_318 >= 0
x_319 >= 0
x_320 >= 0
x_321 >= 0
x_322 >= 0
x_323 >= 0
x_324 >= 0
x_325 >= 0
x_326 >= 0
x_327 >= 0
x_328 >= 0
x_329 >= 0
x_330 >= 0
x_331 >= 0
x_332 >= 0
x_333 >= 0
x_334 >= 0
x_335 >= 0
x_336 >= 0
x_337 >= 0
x_338 >= 0
x_339 >= 0
x_340 >= 0
x_341 >= 0
x_342 >= 0
x_343 >= 0
x_344 >= 0
x_345 >= 0
x_346 >= 0
x_347 >= 0
x_348 >= 0
x_349 >= 0
x_350 >= 0
x_351 >= 0
x_352 >= 0
x_353 >= 0
x_354 >= 0
x_355 >= 0
x_356 >= 0
x_357 >= 0
x_358 >= 0
x_359 >= 0
x_360 >= 0
x_361 >= 0
x_362 >= 0
x_363 >= 0
x_364 >= 0
x_365 >= 0
x_366 >= 0
x_367 >= 0
x_368 >= 0
x_369 >= 0
x_370 >= 0
x_371 >= 0
x_372 >= 0
x_373 >= 0
x_374 >= 0
x_375 >= 0
x_376 >= 0
x_377 >= 0
x_378 >= 0
x_379 >= 0
x_380 >= 0
x_381 >= 0
x_382 >= 0
x_383 >= 0
x_384 >= 0
x_385 >= 0
x_386 >= 0
x_387 >= 0
x_388 >= 0
x_389 >= 0
General
Binaries
y_1
y_2
y_3
y_4
y_5
y_6
y_7
y_8
y_9
y_10
y_11
y_12
y_13
y_14
y_15
y_16
y_17
y_18
y_19
y_20
y_21
y_22
y_23
y_24
y_25
y_26
y_27
y_28
y_29
y_30
y_31
y_32
y_33
y_34
y_35
y_36
y_37
y_38
y_39
y_40
y_41
y_42
y_43
y_44
y_45
y_46
y_47
y_48
y_49
y_50
y_51
y_52
y_53
y_54
y_55
y_56
y_57
y_58
y_59
y_60
y_61
y_62
y_63
y_64
y_65
y_66
y_67
y_68
y_69
y_70
y_71
y_72
y_73
y_74
y_75
y_76
y_77
y_78
y_79
y_80
y_81
y_82
y_83
y_84
y_85
y_86
y_87
y_88
y_89
y_90
y_91
y_92
y_93
y_94
y_95
y_96
y_97
y_98
y_99
y_100
y_101
y_102
y_103
y_104
y_105
y_106
y_107
y_108
y_109
y_110
y_111
y_112
y_113
y_114
y_115
y_116
y_117
y_118
y_119
y_120
y_121
y_122
y_123
y_124
y_125
y_126
y_127
y_128
y_129
y_130
y_131
y_132
y_133
y_134
y_135
y_136
y_137
y_138
y_139
y_140
y_141
y_142
y_143
y_144
y_145
y_146
y_147
y_148
y_149
y_150
y_151
y_152
y_153
y_154
y_155
y_156
y_157
y_158
y_159
y_160
y_161
y_162
y_163
y_164
y_165
y_166
y_167
y_168
y_169
y_170
y_171
y_172
y_173
y_174
y_175
y_176
y_177
y_178
y_179
y_180
y_181
y_182
y_183
y_184
y_185
y_186
y_187
y_188
y_189
y_190
y_191
y_192
y_193
y_194
y_195
y_196
y_197
y_198
y_199
y_200
y_201
y_202
y_203
y_204
y_205
y_206
y_207
y_208
y_209
y_210
y_211
y_212
y_213
y_214
y_215
y_216
y_217
y_218
y_219
y_220
y_221
y_222
y_223
y_224
y_225
y_226
y_227
y_228
y_229
y_230
y_231
y_232
y_233
y_234
y_235
y_236
y_237
y_238
y_239
y_240
y_241
y_242
y_243
y_244
y_245
y_246
y_247
y_248
y_249
y_250
y_251
y_252
y_253
y_254
y_255
y_256
y_257
y_258
y_259
y_260
y_261
y_262
y_263
y_264
y_265
y_266
y_267
y_268
y_269
y_270
y_271
y_272
y_273
y_274
y_275
y_276
y_277
y_278
y_279
y_280
y_281
y_282
y_283
y_284
y_285
y_286
y_287
y_288
y_289
y_290
y_291
y_292
y_293
y_294
y_295
y_296
y_297
y_298
y_299
y_300
y_301
y_302
y_303
y_304
y_305
y_306
y_307
y_308
y_309
y_310
y_311
y_312
y_313
y_314
y_315
y_316
y_317
y_318
y_319
y_320
y_321
y_322
y_323
y_324
y_325
y_326
y_327
y_328
y_329
y_330
y_331
y_332
y_333
y_334
y_335
y_336
y_337
y_338
y_339
y_340
y_341
y_342
y_343
y_344
y_345
y_346
y_347
y_348
y_349
y_350
y_351
y_352
y_353
y_354
y_355
y_356
y_357
y_358
y_359
y_360
y_361
y_362
y_363
y_364
y_365
y_366
y_367
y_368
y_369
y_370
y_371
y_372
y_373
y_374
y_375
y_376
End
