data/solutions/exact100kb/instance081.txt
VALUE 1300799
4 98
6 86
10 77
11 64
13 20
13 14
15 63
15 16
16 17
17 18
18 19
19 20
23 53
24 56
24 26
28 31
30 34
30 31
33 94
33 34
36 89
37 92
40 49
26 49
53 54
54 66
54 55
56 63
55 57
59 62
57 60
60 62
59 63
64 65
65 66
66 70
10 70
4 77
86 87
14 87
87 89
36 92
37 94
6 99
10 100
11 101
13 102
19 103
23 104
24 105
28 106
30 107
33 108
37 109
40 110

